&CONTROL
  calculation = 'bands'
  etot_conv_thr =   5.0000000000d-05
  forc_conv_thr =   1.0000000000d-04
  outdir = './out/'
  prefix = 'aiida'
  pseudo_dir = '../pseudo/'
  tprnfor = .true.
  tstress = .true.
  verbosity = 'high'
/
&SYSTEM
  degauss =   2.2049585400d-02
  ecutrho =   5.00000000d+02
  ecutwfc =   5.0000000000d+01
  ibrav = 0
  nat = 10
  ntyp = 2
  occupations = 'smearing'
  smearing = 'cold'
/
&ELECTRONS
  conv_thr =   1.0000000000d-09
  electron_maxstep = 80
  mixing_beta =   4.0000000000d-01
/
ATOMIC_SPECIES
Fe     55.845 Fe.pbe-spn-kjpaw_psl.0.2.1.UPF
N      14.0067 N.pbe-n-radius_5.UPF
ATOMIC_POSITIONS angstrom
Fe       1.2236500000     0.0000000000     0.0000000000
N        1.5037125346     2.7300825763     1.5270979943
N        2.2385202754     1.6905934654     1.6215576641
N        1.2817326826     3.2166795965     2.7109925219
N        2.4605001275     1.2039964451     0.4376631365
Fe      -0.01286229       0.95289677       3.14865566
N        0.18305515       0.21520008       4.67575365
N        0.91786289      -0.82428903       4.77021332
N       -0.03892471       0.7017971        5.85964818
N        1.13984274      -1.31088605       3.58631879

CELL_PARAMETERS angstrom
   -2.4473000000     0.0000000000     0.0000000000
   -0.0841450992    -3.4677792666     0.0000000000
    2.42157542       1.90579355       6.29731132


   K_POINTS tpiba
   347
        0.0000000   0.0000000   0.0000000    1
       -0.0094340   0.0002289   0.0035585    2
       -0.0188679   0.0004578   0.0071169    3
       -0.0283019   0.0006867   0.0106754    4
       -0.0377358   0.0009157   0.0142339    5
       -0.0471698   0.0011446   0.0177923    6
       -0.0566038   0.0013735   0.0213508    7
       -0.0660377   0.0016024   0.0249093    8
       -0.0754717   0.0018313   0.0284678    9
       -0.0849057   0.0020602   0.0320262   10
       -0.0943396   0.0022891   0.0355847   11
       -0.1037736   0.0025180   0.0391432   12
       -0.1132075   0.0027470   0.0427016   13
       -0.1226415   0.0029759   0.0462601   14
       -0.1320755   0.0032048   0.0498186   15
       -0.1415094   0.0034337   0.0533770   16
       -0.1509434   0.0036626   0.0569355   17
       -0.1603774   0.0038915   0.0604940   18
       -0.1698113   0.0041204   0.0640524   19
       -0.1792453   0.0043494   0.0676109   20
       -0.1886792   0.0045783   0.0711694   21
       -0.1981132   0.0048072   0.0747279   22
       -0.2075472   0.0050361   0.0782863   23
       -0.2169811   0.0052650   0.0818448   24
       -0.2264151   0.0054939   0.0854033   25
       -0.2358491   0.0057228   0.0889617   26
       -0.2452830   0.0059518   0.0925202   27
       -0.2547170   0.0061807   0.0960787   28
       -0.2641509   0.0064096   0.0996371   29
       -0.2735849   0.0066385   0.1031956   30
       -0.2830189   0.0068674   0.1067541   31
       -0.2924528   0.0070963   0.1103125   32
       -0.3018868   0.0073252   0.1138710   33
       -0.3113208   0.0075541   0.1174295   34
       -0.3207547   0.0077831   0.1209880   35
       -0.3301887   0.0080120   0.1245464   36
       -0.3396226   0.0082409   0.1281049   37
       -0.3490566   0.0084698   0.1316634   38
       -0.3584906   0.0086987   0.1352218   39
       -0.3679245   0.0089276   0.1387803   40
       -0.3773585   0.0091565   0.1423388   41
       -0.3867925   0.0093855   0.1458972   42
       -0.3962264   0.0096144   0.1494557   43
       -0.4056604   0.0098433   0.1530142   44
       -0.4150943   0.0100722   0.1565727   45
       -0.4245283   0.0103011   0.1601311   46
       -0.4339623   0.0105300   0.1636896   47
       -0.4433962   0.0107589   0.1672481   48
       -0.4528302   0.0109879   0.1708065   49
       -0.4622642   0.0112168   0.1743650   50
       -0.4716981   0.0114457   0.1779235   51
       -0.4811321   0.0116746   0.1814819   52
       -0.4905660   0.0119035   0.1850404   53
       -0.5000000   0.0121324   0.1885989   54
        0.0000000  -0.3528627   0.1067890   55
        0.0000000  -0.3430610   0.1038226   56
        0.0000000  -0.3332592   0.1008563   57
        0.0000000  -0.3234575   0.0978899   58
        0.0000000  -0.3136557   0.0949235   59
        0.0000000  -0.3038540   0.0919572   60
        0.0000000  -0.2940523   0.0889908   61
        0.0000000  -0.2842505   0.0860245   62
        0.0000000  -0.2744488   0.0830581   63
        0.0000000  -0.2646470   0.0800917   64
        0.0000000  -0.2548453   0.0771254   65
        0.0000000  -0.2450436   0.0741590   66
        0.0000000  -0.2352418   0.0711927   67
        0.0000000  -0.2254401   0.0682263   68
        0.0000000  -0.2156383   0.0652599   69
        0.0000000  -0.2058366   0.0622936   70
        0.0000000  -0.1960348   0.0593272   71
        0.0000000  -0.1862331   0.0563609   72
        0.0000000  -0.1764314   0.0533945   73
        0.0000000  -0.1666296   0.0504281   74
        0.0000000  -0.1568279   0.0474618   75
        0.0000000  -0.1470261   0.0444954   76
        0.0000000  -0.1372244   0.0415290   77
        0.0000000  -0.1274226   0.0385627   78
        0.0000000  -0.1176209   0.0355963   79
        0.0000000  -0.1078192   0.0326300   80
        0.0000000  -0.0980174   0.0296636   81
        0.0000000  -0.0882157   0.0266972   82
        0.0000000  -0.0784139   0.0237309   83
        0.0000000  -0.0686122   0.0207645   84
        0.0000000  -0.0588105   0.0177982   85
        0.0000000  -0.0490087   0.0148318   86
        0.0000000  -0.0392070   0.0118654   87
        0.0000000  -0.0294052   0.0088991   88
        0.0000000  -0.0196035   0.0059327   89
        0.0000000  -0.0098017   0.0029664   90
        0.0000000   0.0000000   0.0102270   91
        0.0000000   0.0000000   0.0204540   92
        0.0000000   0.0000000   0.0306810   93
        0.0000000   0.0000000   0.0409080   94
        0.0000000   0.0000000   0.0511350   95
        0.0000000   0.0000000   0.0613620   96
        0.0000000   0.0000000   0.0715890   97
        0.0000000   0.0000000   0.0818160   98
        0.0000000   0.0000000   0.0920430   99
        0.0000000   0.0000000   0.1022700  100
        0.0000000   0.0000000   0.1124971  101
        0.0000000   0.0000000   0.1227241  102
        0.0000000   0.0000000   0.1329511  103
        0.0000000   0.0000000   0.1431781  104
        0.0000000   0.0000000   0.1534051  105
        0.0000000   0.0000000   0.1636321  106
        0.0000000   0.0000000   0.1738591  107
        0.0000000   0.0000000   0.1840861  108
        0.0000000   0.0000000   0.1943131  109
        0.0000000   0.0000000  -0.1840861  110
        0.0000000   0.0000000  -0.1738591  111
        0.0000000   0.0000000  -0.1636321  112
        0.0000000   0.0000000  -0.1534051  113
        0.0000000   0.0000000  -0.1431781  114
        0.0000000   0.0000000  -0.1329511  115
        0.0000000   0.0000000  -0.1227241  116
        0.0000000   0.0000000  -0.1124971  117
        0.0000000   0.0000000  -0.1022700  118
        0.0000000   0.0000000  -0.0920430  119
        0.0000000   0.0000000  -0.0818160  120
        0.0000000   0.0000000  -0.0715890  121
        0.0000000   0.0000000  -0.0613620  122
        0.0000000   0.0000000  -0.0511350  123
        0.0000000   0.0000000  -0.0409080  124
        0.0000000   0.0000000  -0.0306810  125
        0.0000000   0.0000000  -0.0204540  126
        0.0000000   0.0000000  -0.0102270  127
       -0.5000000  -0.3407303  -0.0932383  128
        0.4918033   0.3351446   0.0917098  129
        0.4836066   0.3295588   0.0901813  130
        0.4754098   0.3239731   0.0886528  131
        0.4672131   0.3183873   0.0871243  132
        0.4590164   0.3128016   0.0855958  133
        0.4508197   0.3072158   0.0840673  134
        0.4426230   0.3016301   0.0825388  135
        0.4344262   0.2960444   0.0810103  136
        0.4262295   0.2904586   0.0794818  137
        0.4180328   0.2848729   0.0779533  138
        0.4098361   0.2792871   0.0764248  139
        0.4016393   0.2737014   0.0748964  140
        0.3934426   0.2681156   0.0733679  141
        0.3852459   0.2625299   0.0718394  142
        0.3770492   0.2569442   0.0703109  143
        0.3688525   0.2513584   0.0687824  144
        0.3606557   0.2457727   0.0672539  145
        0.3524590   0.2401869   0.0657254  146
        0.3442623   0.2346012   0.0641969  147
        0.3360656   0.2290154   0.0626684  148
        0.3278689   0.2234297   0.0611399  149
        0.3196721   0.2178440   0.0596114  150
        0.3114754   0.2122582   0.0580829  151
        0.3032787   0.2066725   0.0565544  152
        0.2950820   0.2010867   0.0550259  153
        0.2868852   0.1955010   0.0534974  154
        0.2786885   0.1899152   0.0519689  155
        0.2704918   0.1843295   0.0504404  156
        0.2622951   0.1787438   0.0489119  157
        0.2540984   0.1731580   0.0473834  158
        0.2459016   0.1675723   0.0458549  159
        0.2377049   0.1619865   0.0443264  160
        0.2295082   0.1564008   0.0427979  161
        0.2213115   0.1508150   0.0412694  162
        0.2131148   0.1452293   0.0397409  163
        0.2049180   0.1396436   0.0382124  164
        0.1967213   0.1340578   0.0366839  165
        0.1885246   0.1284721   0.0351554  166
        0.1803279   0.1228863   0.0336269  167
        0.1721311   0.1173006   0.0320984  168
        0.1639344   0.1117149   0.0305699  169
        0.1557377   0.1061291   0.0290414  170
        0.1475410   0.1005434   0.0275129  171
        0.1393443   0.0949576   0.0259844  172
        0.1311475   0.0893719   0.0244560  173
        0.1229508   0.0837861   0.0229275  174
        0.1147541   0.0782004   0.0213990  175
        0.1065574   0.0726147   0.0198705  176
        0.0983607   0.0670289   0.0183420  177
        0.0901639   0.0614432   0.0168135  178
        0.0819672   0.0558574   0.0152850  179
        0.0737705   0.0502717   0.0137565  180
        0.0655738   0.0446859   0.0122280  181
        0.0573770   0.0391002   0.0106995  182
        0.0491803   0.0335145   0.0091710  183
        0.0409836   0.0279287   0.0076425  184
        0.0327869   0.0223430   0.0061140  185
        0.0245902   0.0167572   0.0045855  186
        0.0163934   0.0111715   0.0030570  187
        0.0081967   0.0055857   0.0015285  188
        0.0000000   0.0078414   0.0062630  189
        0.0000000   0.0156828   0.0125261  190
        0.0000000   0.0235242   0.0187891  191
        0.0000000   0.0313656   0.0250522  192
        0.0000000   0.0392070   0.0313152  193
        0.0000000   0.0470484   0.0375783  194
        0.0000000   0.0548898   0.0438413  195
        0.0000000   0.0627311   0.0501044  196
        0.0000000   0.0705725   0.0563674  197
        0.0000000   0.0784139   0.0626305  198
        0.0000000   0.0862553   0.0688935  199
        0.0000000   0.0940967   0.0751566  200
        0.0000000   0.1019381   0.0814196  201
        0.0000000   0.1097795   0.0876827  202
        0.0000000   0.1176209   0.0939457  203
        0.0000000   0.1254623   0.1002088  204
        0.0000000   0.1333037   0.1064718  205
        0.0000000   0.1411451   0.1127349  206
        0.0000000   0.1489865   0.1189979  207
        0.0000000   0.1568279   0.1252610  208
        0.0000000   0.1646693   0.1315240  209
        0.0000000   0.1725107   0.1377871  210
        0.0000000   0.1803521   0.1440501  211
        0.0000000   0.1881934   0.1503132  212
        0.0000000   0.1960348   0.1565762  213
        0.0000000   0.2038762   0.1628393  214
        0.0000000   0.2117176   0.1691023  215
        0.0000000   0.2195590   0.1753654  216
        0.0000000   0.2274004   0.1816284  217
        0.0000000   0.2352418   0.1878915  218
        0.0000000   0.2430832   0.1941545  219
       -0.0000000   0.2509246  -0.1882086  220
       -0.0000000   0.2587660  -0.1819456  221
       -0.0000000   0.2666074  -0.1756825  222
       -0.0000000   0.2744488  -0.1694195  223
       -0.0000000   0.2822902  -0.1631564  224
       -0.0000000   0.2901316  -0.1568934  225
       -0.0000000   0.2979730  -0.1506303  226
       -0.0000000   0.3058144  -0.1443673  227
       -0.0000000   0.3136557  -0.1381042  228
       -0.0000000   0.3214971  -0.1318412  229
       -0.0000000   0.3293385  -0.1255781  230
       -0.0000000   0.3371799  -0.1193151  231
       -0.0000000   0.3450213  -0.1130520  232
        0.4907407  -0.0119077  -0.1923031  233
        0.4814815  -0.0116831   0.1926189  234
        0.4722222  -0.0114584   0.1889147  235
        0.4629630  -0.0112337   0.1852105  236
        0.4537037  -0.0110090   0.1815063  237
        0.4444444  -0.0107844   0.1778020  238
        0.4351852  -0.0105597   0.1740978  239
        0.4259259  -0.0103350   0.1703936  240
        0.4166667  -0.0101103   0.1666894  241
        0.4074074  -0.0098857   0.1629852  242
        0.3981481  -0.0096610   0.1592810  243
        0.3888889  -0.0094363   0.1555768  244
        0.3796296  -0.0092117   0.1518726  245
        0.3703704  -0.0089870   0.1481684  246
        0.3611111  -0.0087623   0.1444642  247
        0.3518519  -0.0085376   0.1407600  248
        0.3425926  -0.0083130   0.1370557  249
        0.3333333  -0.0080883   0.1333515  250
        0.3240741  -0.0078636   0.1296473  251
        0.3148148  -0.0076389   0.1259431  252
        0.3055556  -0.0074143   0.1222389  253
        0.2962963  -0.0071896   0.1185347  254
        0.2870370  -0.0069649   0.1148305  255
        0.2777778  -0.0067402   0.1111263  256
        0.2685185  -0.0065156   0.1074221  257
        0.2592593  -0.0062909   0.1037179  258
        0.2500000  -0.0060662   0.1000136  259
        0.2407407  -0.0058415   0.0963094  260
        0.2314815  -0.0056169   0.0926052  261
        0.2222222  -0.0053922   0.0889010  262
        0.2129630  -0.0051675   0.0851968  263
        0.2037037  -0.0049428   0.0814926  264
        0.1944444  -0.0047182   0.0777884  265
        0.1851852  -0.0044935   0.0740842  266
        0.1759259  -0.0042688   0.0703800  267
        0.1666667  -0.0040441   0.0666758  268
        0.1574074  -0.0038195   0.0629716  269
        0.1481481  -0.0035948   0.0592673  270
        0.1388889  -0.0033701   0.0555631  271
        0.1296296  -0.0031454   0.0518589  272
        0.1203704  -0.0029208   0.0481547  273
        0.1111111  -0.0026961   0.0444505  274
        0.1018519  -0.0024714   0.0407463  275
        0.0925926  -0.0022467   0.0370421  276
        0.0833333  -0.0020221   0.0333379  277
        0.0740741  -0.0017974   0.0296337  278
        0.0648148  -0.0015727   0.0259295  279
        0.0555556  -0.0013480   0.0222253  280
        0.0462963  -0.0011234   0.0185210  281
        0.0370370  -0.0008987   0.0148168  282
        0.0277778  -0.0006740   0.0111126  283
        0.0185185  -0.0004493   0.0074084  284
        0.0092593  -0.0002247   0.0037042  285
       -0.0079365   0.0057936   0.0012986  286
       -0.0158730   0.0115871   0.0025971  287
       -0.0238095   0.0173807   0.0038957  288
       -0.0317460   0.0231743   0.0051943  289
       -0.0396825   0.0289679   0.0064928  290
       -0.0476190   0.0347614   0.0077914  291
       -0.0555556   0.0405550   0.0090900  292
       -0.0634921   0.0463486   0.0103886  293
       -0.0714286   0.0521422   0.0116871  294
       -0.0793651   0.0579357   0.0129857  295
       -0.0873016   0.0637293   0.0142843  296
       -0.0952381   0.0695229   0.0155828  297
       -0.1031746   0.0753165   0.0168814  298
       -0.1111111   0.0811100   0.0181800  299
       -0.1190476   0.0869036   0.0194785  300
       -0.1269841   0.0926972   0.0207771  301
       -0.1349206   0.0984907   0.0220757  302
       -0.1428571   0.1042843   0.0233743  303
       -0.1507937   0.1100779   0.0246728  304
       -0.1587302   0.1158715   0.0259714  305
       -0.1666667   0.1216650   0.0272700  306
       -0.1746032   0.1274586   0.0285685  307
       -0.1825397   0.1332522   0.0298671  308
       -0.1904762   0.1390458   0.0311657  309
       -0.1984127   0.1448393   0.0324642  310
       -0.2063492   0.1506329   0.0337628  311
       -0.2142857   0.1564265   0.0350614  312
       -0.2222222   0.1622201   0.0363600  313
       -0.2301587   0.1680136   0.0376585  314
       -0.2380952   0.1738072   0.0389571  315
       -0.2460317   0.1796008   0.0402557  316
       -0.2539683   0.1853944   0.0415542  317
       -0.2619048   0.1911879   0.0428528  318
       -0.2698413   0.1969815   0.0441514  319
       -0.2777778   0.2027751   0.0454499  320
       -0.2857143   0.2085686   0.0467485  321
       -0.2936508   0.2143622   0.0480471  322
       -0.3015873   0.2201558   0.0493456  323
       -0.3095238   0.2259494   0.0506442  324
       -0.3174603   0.2317429   0.0519428  325
       -0.3253968   0.2375365   0.0532414  326
       -0.3333333   0.2433301   0.0545399  327
       -0.3412698   0.2491237   0.0558385  328
       -0.3492063   0.2549172   0.0571371  329
       -0.3571429   0.2607108   0.0584356  330
       -0.3650794   0.2665044   0.0597342  331
       -0.3730159   0.2722980   0.0610328  332
       -0.3809524   0.2780915   0.0623313  333
       -0.3888889   0.2838851   0.0636299  334
       -0.3968254   0.2896787   0.0649285  335
       -0.4047619   0.2954722   0.0662271  336
       -0.4126984   0.3012658   0.0675256  337
       -0.4206349   0.3070594   0.0688242  338
       -0.4285714   0.3128530   0.0701228  339
       -0.4365079   0.3186465   0.0714213  340
       -0.4444444   0.3244401   0.0727199  341
       -0.4523810   0.3302337   0.0740185  342
       -0.4603175   0.3360273   0.0753170  343
       -0.4682540   0.3418208   0.0766156  344
       -0.4761905   0.3476144   0.0779142  345
       -0.4841270   0.3534080   0.0792128  346
       -0.4920635  -0.3465239  -0.0945369  347
