&CONTROL
  calculation = 'scf'
  etot_conv_thr =   5.0000000000d-05
  forc_conv_thr =   1.0000000000d-04
  outdir = './out/'
  prefix = 'aiida'
  pseudo_dir = '../pseudo/'
  tprnfor = .true.
  tstress = .true.
  verbosity = 'high'
/
&SYSTEM
  degauss =   2.2049585400d-02
  ecutrho =   5.00000000d+02
  ecutwfc =   5.0000000000d+01
  ibrav = 0
  nat = 10
  ntyp = 2
  occupations = 'smearing'
  smearing = 'cold'
/
&ELECTRONS
  conv_thr =   1.0000000000d-09
  electron_maxstep = 80
  mixing_beta =   4.0000000000d-01
/
ATOMIC_SPECIES
Fe     55.845 Fe.pbe-spn-kjpaw_psl.0.2.1.UPF
N      14.0067 N.pbe-n-radius_5.UPF
ATOMIC_POSITIONS angstrom
Fe       1.2236500000     0.0000000000     0.0000000000
N        1.5037125346     2.7300825763     1.5270979943
N        2.2385202754     1.6905934654     1.6215576641
N        1.2817326826     3.2166795965     2.7109925219
N        2.4605001275     1.2039964451     0.4376631365
Fe      -0.01286229       0.95289677       3.14865566
N        0.18305515       0.21520008       4.67575365
N        0.91786289      -0.82428903       4.77021332
N       -0.03892471       0.7017971        5.85964818
N        1.13984274      -1.31088605       3.58631879

K_POINTS automatic
10 7 3 0 0 0

CELL_PARAMETERS angstrom
   -2.4473000000     0.0000000000     0.0000000000
   -0.0841450992    -3.4677792666     0.0000000000
    2.42157542       1.90579355       6.29731132
