 &control
    calculation='scf'
    restart_mode='from_scratch',    
    pseudo_dir = '../../ppt/',
    outdir='../tmp/'
    prefix='si',
    tstress=.true.
 /
 &system
    ibrav=2, celldm(1)=10.274, nat=2, ntyp=1,
    ecutwfc=50.0, nspin=1, ecutrho=300.0
    occupations='smearing', smearing='cold', degauss=0.02
 /
 &electrons
    conv_thr = 1.0e-9
 /
ATOMIC_SPECIES
 Si 28 si_pbe_v1.uspp.F.UPF
ATOMIC_POSITIONS
 Si 0.00 0.00 0.00
 Si 0.25 0.25 0.25
K_POINTS automatic
16 16 16 0 0 0
