 &control
    calculation='bands'
    pseudo_dir = '../../ppt/',
    outdir='../tmp/'
    prefix='sisc'
 /
 &system
    ibrav = 1, celldm(1) = 10.274, nat= 8, ntyp= 1,
    ecutwfc = 50.0, nspin = 1, ecutrho=300.0
    occupations='smearing', smearing='cold', degauss=0.02,
    nbnd=30
 /
 &electrons
    conv_thr = 1.0e-9
 /
ATOMIC_SPECIES
 Si 28 si_pbe_v1.uspp.F.UPF
ATOMIC_POSITIONS
 Si 0.0 0.0 0.0
 Si 0.5 0.5 0.0
 Si 0.5 0.0 0.5
 Si 0.0 0.5 0.5
 Si 0.25 0.25 0.25
 Si 0.75 0.75 0.25
 Si 0.75 0.25 0.75
 Si 0.25 0.75 0.75

   K_POINTS tpiba
