 &control
    calculation='bands'
    pseudo_dir = '../../ppt/',
    outdir='../tmp/'
    prefix='sisc'
 /
 &system
    ibrav = 1, celldm(1) = 10.274, nat= 8, ntyp= 1,
    ecutwfc = 50.0, nspin = 1, ecutrho=300.0
    occupations='smearing', smearing='cold', degauss=0.02,
    nbnd=30
 /
 &electrons
    conv_thr = 1.0e-9
 /
ATOMIC_SPECIES
 Si 28 si_pbe_v1.uspp.F.UPF
ATOMIC_POSITIONS
 Si 0.0 0.0 0.0
 Si 0.5 0.5 0.0
 Si 0.5 0.0 0.5
 Si 0.0 0.5 0.5
 Si 0.25 0.25 0.25
 Si 0.75 0.75 0.25
 Si 0.75 0.25 0.75
 Si 0.25 0.75 0.75

   K_POINTS tpiba
    81
        0.0000000   0.0000000   0.5000000    1
        0.0000000  -0.0625000   0.4687500    2
        0.0000000  -0.1250000   0.4375000    3
        0.0000000  -0.1875000   0.4062500    4
        0.0000000  -0.2500000   0.3750000    5
        0.0000000  -0.3125000   0.3437500    6
        0.0000000  -0.3750000   0.3125000    7
        0.0000000  -0.4375000   0.2812500    8
        0.0000000   0.5000000   0.2500000    9
        0.0000000   0.4375000   0.2187500   10
        0.0000000   0.3750000   0.1875000   11
        0.0000000   0.3125000   0.1562500   12
        0.0000000   0.2500000   0.1250000   13
        0.0000000   0.1875000   0.0937500   14
        0.0000000   0.1250000   0.0625000   15
        0.0000000   0.0625000   0.0312500   16
        0.0000000   0.0000000   0.0000000   17
        0.0000000   0.0625000   0.0000000   18
        0.0000000   0.1250000   0.0000000   19
        0.0000000   0.1875000   0.0000000   20
        0.0000000   0.2500000   0.0000000   21
        0.0000000   0.3125000   0.0000000   22
        0.0000000   0.3750000   0.0000000   23
        0.0000000   0.4375000   0.0000000   24
        0.0000000   0.5000000   0.0000000   25
        0.0000000  -0.4375000   0.0000000   26
        0.0000000  -0.3750000   0.0000000   27
        0.0000000  -0.3125000   0.0000000   28
        0.0000000  -0.2500000   0.0000000   29
        0.0000000  -0.1875000   0.0000000   30
        0.0000000  -0.1250000   0.0000000   31
        0.0000000  -0.0625000   0.0000000   32
        0.0000000   0.0000000   0.0000000   33
        0.0000000   0.0000000   0.0312500   34
        0.0000000   0.0000000   0.0625000   35
        0.0000000   0.0000000   0.0937500   36
        0.0000000   0.0000000   0.1250000   37
        0.0000000   0.0000000   0.1562500   38
        0.0000000   0.0000000   0.1875000   39
        0.0000000   0.0000000   0.2187500   40
        0.0000000   0.0000000   0.2500000   41
        0.0000000   0.0000000   0.2812500   42
        0.0000000   0.0000000   0.3125000   43
        0.0000000   0.0000000   0.3437500   44
        0.0000000   0.0000000   0.3750000   45
        0.0000000   0.0000000   0.4062500   46
        0.0000000   0.0000000   0.4375000   47
        0.0000000   0.0000000   0.4687500   48
        0.0000000   0.0000000   0.5000000   49
       -0.0312500  -0.0312500   0.5000000   50
       -0.0625000  -0.0625000   0.5000000   51
       -0.0937500  -0.0937500   0.5000000   52
       -0.1250000  -0.1250000   0.5000000   53
       -0.1562500  -0.1562500   0.5000000   54
       -0.1875000  -0.1875000   0.5000000   55
       -0.2187500  -0.2187500   0.5000000   56
       -0.2500000  -0.2500000   0.5000000   57
       -0.2812500  -0.2812500   0.5000000   58
       -0.3125000  -0.3125000   0.5000000   59
       -0.3437500  -0.3437500   0.5000000   60
       -0.3750000  -0.3750000   0.5000000   61
       -0.4062500  -0.4062500   0.5000000   62
       -0.4375000  -0.4375000   0.5000000   63
       -0.4687500  -0.4687500   0.5000000   64
        0.5000000   0.5000000   0.5000000   65
       -0.4687500   0.4687500   0.4687500   66
       -0.4375000   0.4375000   0.4375000   67
       -0.4062500   0.4062500   0.4062500   68
       -0.3750000   0.3750000   0.3750000   69
       -0.3437500   0.3437500   0.3437500   70
       -0.3125000   0.3125000   0.3125000   71
       -0.2812500   0.2812500   0.2812500   72
       -0.2500000   0.2500000   0.2500000   73
       -0.2187500   0.2187500   0.2187500   74
       -0.1875000   0.1875000   0.1875000   75
       -0.1562500   0.1562500   0.1562500   76
       -0.1250000   0.1250000   0.1250000   77
       -0.0937500   0.0937500   0.0937500   78
       -0.0625000   0.0625000   0.0625000   79
       -0.0312500   0.0312500   0.0312500   80
        0.0000000   0.0000000   0.0000000   81
