
&BANDS
  outdir = './out/'
  prefix = 'Zn'
  filband='band.dat'
/
