&control
    calculation      = 'bands'
    prefix           = 'SnS2'
    restart_mode     = 'from_scratch'
    pseudo_dir       = '../',
    outdir           = './'
    disk_io          = 'low'
    tstress          = .true.
    tprnfor          = .true.
    etot_conv_thr    = 1.0d-6
    forc_conv_thr    = 1.0d-4
    verbosity        = 'high'
 /
 &system
    ibrav            = 4
    celldm(1)        = 6.9552454830
    celldm(3)        = 1.5985603575    
    nat              = 3
    ntyp             = 2
    ecutwfc          = 60
    ecutrho          = 240
    occupations      = 'smearing'
    smearing         = 'mv'
    degauss          = 0.01
    input_dft        = 'vdw-df-ob86'
    nbnd             = 34
 /
 &electrons
    diagonalization = 'david'
    mixing_mode = 'plain'
    mixing_beta = 0.7
    conv_thr =  1.0d-9
 /
ATOMIC_SPECIES
S   32.06   S_ONCV_PBE-1.1.upf
Sn  118.71  Sn_ONCV_PBE-1.1.upf

K_POINTS crystal_b
8
0.000   0.000   0.000 40  ! G
0.500   0.000   0.000 40  ! M
0.3333  0.3333  0.000 40  ! K
0.000   0.000   0.000 40  ! G
0.000   0.000   0.500 40  ! A
0.500   0.000   0.500 40  ! L
0.3333  0.3333  0.500 40  ! H
0.000   0.000   0.500 1   ! A

ATOMIC_POSITIONS (crystal)
S        0.333333333   0.666666667   0.251966962
S        0.666666667   0.333333333   0.748033038
Sn       0.000000000   0.000000000   0.000000000

