&control
  calculation = 'bands'
  prefix='Fe',
  pseudo_dir = '../../ppt/',
  outdir='../tmp/'
  verbosity='high'
/
&system
  ibrav=3,
  celldm(1)=5.42,
  nat=1,
  ntyp=1,
  nspin=2,
  starting_magnetization(1)=0.5,
  occupations='smearing',
  smearing='mp',
  degauss=0.04,
  ecutwfc =45.0,
  ecutrho =300.0
/
&electrons
  conv_thr = 1.0d-10
/
ATOMIC_SPECIES
Fe 0.0 fe_pbe_v1.uspp.F.UPF
ATOMIC_POSITIONS
Fe 0.0000000 0.00000000 0.0
K_POINTS tpiba_b
4
 0.00  0.00  0.00    20 !G
-0.50  0.50  0.50    20 !H
 0.00  0.00  0.50    20 !N
 0.25  0.25  0.25    20 !P
