 &CONTROL
                 calculation = 'scf' ,
                restart_mode = 'from_scratch' ,
                      outdir = '../tmp' ,
                  pseudo_dir = '../../ppt/' ,
                      prefix = 'grp' ,
 /
 &SYSTEM
                       ibrav = 4,
                   celldm(1) = 9.295612,
                   celldm(3) = 3.049384161042866247,
                         nat = 8,
                        ntyp = 1,
                     ecutwfc = 40 ,
                     ecutrho = 160 ,
                        nbnd = 40,
                 occupations = 'smearing' ,
                     degauss = 0.0001 ,
 /
 &ELECTRONS
                    conv_thr = 1.0d-8 ,
                 mixing_mode = 'plain' ,
                 mixing_beta = 0.7 ,
             diagonalization = 'david' ,
 /
ATOMIC_SPECIES
    C   12.01078  C.pbe-mt_fhi.UPF
ATOMIC_POSITIONS crystal 
C           0.16666666   0.83333333   0.00000000
C           0.16666666   0.33333333   0.00000000
C           0.66666666   0.83333333   0.00000000
C           0.50000000   0.00000000   0.00000000
C           0.00000000   0.50000000   0.00000000
C           0.50000000   0.50000000   0.00000000
C           0.66666666   0.33333333   0.00000000
C           0.00000000   0.00000000   0.00000000
K_POINTS automatic 
  15 15 1   0 0 0 
