 &control
    calculation = 'scf'
    restart_mode='from_scratch',
    prefix='batio3',
    pseudo_dir = '../pseudo/',
    outdir='./tmp/'
 /
 &system    
    ibrav=  6, celldm(1) =7.44266, celldm(3) = 2 nat=  10, ntyp= 3,
    ecutwfc =40.0, ecutrho = 400
 /
 &electrons
    conv_thr =  1.0d-10
 /
ATOMIC_SPECIES
O  8 O.pbe-van_ak.UPF  
Ti 22 Ti.pbe-sp-van_ak.UPF
Ba 56 Ba-vdb-usp-pbe.UPF 
ATOMIC_POSITIONS {crystal}
Ba 0.0 0.0 0.0
Ti 0.5 0.5 0.25
O  0.0 0.5 0.25
O  0.5 0.5 0.0
O  0.5 0.0 0.25
Ba 0.0 0.0 0.5
Ti 0.5 0.5 0.75
O  0.0 0.5 0.75
O  0.5 0.5 0.5
O  0.5 0.0 0.75
K_POINTS {automatic}
 8 8 4  0 0 0
