&BANDS
  outdir = './out/'
  prefix = 'aiida'
  filband='bd.dat'
/
