 &bands
    prefix  = 'grp'
    outdir = '../tmp'
    filband = 'bands.dat'
    no_overlap = .true.
 /

