 &control
    calculation='scf'
    restart_mode='restart',
    pseudo_dir = '../../ppt/',
    outdir='../tmp/'
    prefix='fesc'
 /
 &system
    ibrav = 6, celldm(1) =6.081115, celldm(3) = 0.707107, nat= 2, ntyp= 1,
    ecutwfc = 50.0, nspin = 1, ecutrho=300.0
    occupations='smearing', smearing='cold', degauss=0.02
 /
 &electrons
    conv_thr = 1.0e-8
 /
ATOMIC_SPECIES
 Fe 55.85 fe_pbe_v1.uspp.F.UPF
ATOMIC_POSITIONS
 Fe 0.0 0.0 0.0
 Fe 0.5 0.5 0.0
K_POINTS (automatic)
12 12 16 0 0 0

