&control
    calculation      = 'bands'
    prefix           = 'SnS2'
    restart_mode     = 'from_scratch'
    pseudo_dir       = '/home/gkafle1/pseudo/',
    outdir           = './'
    disk_io          = 'low'
    tstress          = .true.
    tprnfor          = .true.
    etot_conv_thr    = 1.0d-6
    forc_conv_thr    = 1.0d-4
    wf_collect       = .true.
    verbosity        = 'high'
 /
 &system
    ibrav            = 4
    celldm(1)        = 12.05636422
    celldm(3)        =  0.91839777
    nat              = 9
    ntyp             = 2
    ecutwfc          = 60
    ecutrho          = 240
    occupations      = 'smearing'
    smearing         = 'mv'
    degauss          = 0.01
    input_dft        = 'vdw-df-ob86'
    nbnd             = 64
 /
 &electrons
    diagonalization = 'david'
    mixing_mode = 'plain'
    mixing_beta = 0.7
    conv_thr =  1.0d-9
 /
ATOMIC_SPECIES
S   32.06   S_ONCV_PBE-1.1.upf
Sn  118.71  Sn_ONCV_PBE-1.1.upf

ATOMIC_POSITIONS (crystal)
S       -0.000000000   0.333333330   0.252671293
S        0.333333330   0.000000000   0.252671293
S        0.666666670   0.666666670   0.252671293
S       -0.000000000   0.666666670   0.747328707
S        0.666666670   0.000000000   0.747328707
S        0.333333330   0.333333330   0.747328707
Sn       0.000000000   0.000000000   0.000000000
Sn       0.333333333   0.666666667   0.000000000
Sn       0.666666667   0.333333333   0.000000000

K_POINTS tpiba
   279
        0.0000000   0.0000000   0.0000000    1
        0.0250000   0.0000000   0.0000000    2
        0.0500000  -0.0000000   0.0000000    3
        0.0750000   0.0000000   0.0000000    4
        0.1000000  -0.0000000   0.0000000    5
        0.1250000   0.0000000   0.0000000    6
        0.1500000   0.0000000   0.0000000    7
        0.1750000  -0.0000000   0.0000000    8
        0.2000000   0.0000000   0.0000000    9
        0.2250000  -0.0000000   0.0000000   10
        0.2500000   0.0000000   0.0000000   11
        0.2750000   0.0000000   0.0000000   12
        0.3000000   0.0000000   0.0000000   13
        0.3250000   0.0000000   0.0000000   14
        0.3500000  -0.0000000   0.0000000   15
        0.3750000   0.0000000   0.0000000   16
        0.4000000   0.0000000   0.0000000   17
        0.4250000   0.0000000   0.0000000   18
        0.4500000   0.0000000   0.0000000   19
        0.4750000  -0.0000000   0.0000000   20
        0.5000000   0.0000000   0.0000000   21
        0.5250000   0.0000000   0.0000000   22
        0.5500000   0.0000000   0.0000000   23
        0.5750000  -0.0000000   0.0000000   24
        0.6000000   0.0000000   0.0000000   25
        0.6250000   0.0000000   0.0000000   26
        0.6500000   0.0000000   0.0000000   27
       -0.3250000   0.5773503   0.0000000   28
       -0.3000000   0.5773503   0.0000000   29
       -0.2750000   0.5773503   0.0000000   30
       -0.2500000   0.5773503   0.0000000   31
       -0.2250000   0.5773503   0.0000000   32
       -0.2000000   0.5773503   0.0000000   33
       -0.1750000   0.5773503   0.0000000   34
       -0.1500000   0.5773503   0.0000000   35
       -0.1250000   0.5773503   0.0000000   36
       -0.1000000   0.5773503   0.0000000   37
       -0.0750000   0.5773503   0.0000000   38
       -0.0500000   0.5773503   0.0000000   39
       -0.0250000   0.5773503   0.0000000   40
        0.0000000   0.5773503   0.0000000   41
       -0.0000025  -0.5629180   0.0000000   42
       -0.0000050  -0.5484856   0.0000000   43
       -0.0000075  -0.5340533   0.0000000   44
       -0.0000100  -0.5196210   0.0000000   45
       -0.0000125  -0.5051887   0.0000000   46
       -0.0000150  -0.4907564   0.0000000   47
       -0.0000175  -0.4763241   0.0000000   48
       -0.0000200  -0.4618918   0.0000000   49
       -0.0000225  -0.4474594   0.0000000   50
       -0.0000250  -0.4330271   0.0000000   51
       -0.0000275  -0.4185948   0.0000000   52
       -0.0000300  -0.4041625   0.0000000   53
       -0.0000325  -0.3897302   0.0000000   54
       -0.0000350  -0.3752979   0.0000000   55
       -0.0000375  -0.3608656   0.0000000   56
       -0.0000400  -0.3464333   0.0000000   57
       -0.0000425  -0.3320009   0.0000000   58
       -0.0000450  -0.3175686   0.0000000   59
       -0.0000475  -0.3031363   0.0000000   60
       -0.0000500  -0.2887040   0.0000000   61
       -0.0000525  -0.2742717   0.0000000   62
       -0.0000550  -0.2598394   0.0000000   63
       -0.0000575  -0.2454071   0.0000000   64
       -0.0000600  -0.2309747   0.0000000   65
       -0.0000625  -0.2165424   0.0000000   66
       -0.0000650  -0.2021101   0.0000000   67
       -0.0000675  -0.1876778   0.0000000   68
       -0.0000700  -0.1732455   0.0000000   69
       -0.0000725  -0.1588132   0.0000000   70
       -0.0000750  -0.1443809   0.0000000   71
       -0.0000775  -0.1299486   0.0000000   72
       -0.0000800  -0.1155162   0.0000000   73
       -0.0000825  -0.1010839   0.0000000   74
       -0.0000850  -0.0866516   0.0000000   75
       -0.0000875  -0.0722193   0.0000000   76
       -0.0000900  -0.0577870   0.0000000   77
       -0.0000925  -0.0433547   0.0000000   78
       -0.0000950  -0.0289224   0.0000000   79
       -0.0000975  -0.0144900   0.0000000   80
       -0.0001000  -0.0000577   0.0000000   81
       -0.0250975  -0.0144900   0.0000000   82
       -0.0500950  -0.0289224   0.0000000   83
       -0.0750925  -0.0433547   0.0000000   84
       -0.1000900  -0.0577870   0.0000000   85
       -0.1250875  -0.0722193   0.0000000   86
       -0.1500850  -0.0866516   0.0000000   87
       -0.1750825  -0.1010839   0.0000000   88
       -0.2000800  -0.1155162   0.0000000   89
       -0.2250775  -0.1299486   0.0000000   90
       -0.2500750  -0.1443809   0.0000000   91
       -0.2750725  -0.1588132   0.0000000   92
       -0.3000700  -0.1732455   0.0000000   93
       -0.3250675  -0.1876778   0.0000000   94
       -0.3500650  -0.2021101   0.0000000   95
       -0.3750625  -0.2165424   0.0000000   96
       -0.4000600  -0.2309747   0.0000000   97
       -0.4250575  -0.2454071   0.0000000   98
       -0.4500550  -0.2598394   0.0000000   99
       -0.4750525  -0.2742717   0.0000000  100
        0.4999500   0.2886463   0.0000000  101
        0.4749525   0.2742140   0.0000000  102
        0.4499550   0.2597816   0.0000000  103
        0.4249575   0.2453493   0.0000000  104
        0.3999600   0.2309170   0.0000000  105
        0.3749625   0.2164847   0.0000000  106
        0.3499650   0.2020524   0.0000000  107
        0.3249675   0.1876201   0.0000000  108
        0.2999700   0.1731878   0.0000000  109
        0.2749725   0.1587554   0.0000000  110
        0.2499750   0.1443231   0.0000000  111
        0.2249775   0.1298908   0.0000000  112
        0.1999800   0.1154585   0.0000000  113
        0.1749825   0.1010262   0.0000000  114
        0.1499850   0.0865939   0.0000000  115
        0.1249875   0.0721616   0.0000000  116
        0.0999900   0.0577293   0.0000000  117
        0.0749925   0.0432969   0.0000000  118
        0.0499950   0.0288646   0.0000000  119
        0.0249975   0.0144323   0.0000000  120
        0.0000000   0.0000000   0.0136107  121
        0.0000000   0.0000000   0.0272213  122
        0.0000000   0.0000000   0.0408320  123
        0.0000000   0.0000000   0.0544426  124
        0.0000000   0.0000000   0.0680533  125
        0.0000000   0.0000000   0.0816640  126
        0.0000000   0.0000000   0.0952746  127
        0.0000000   0.0000000   0.1088853  128
        0.0000000   0.0000000   0.1224959  129
        0.0000000   0.0000000   0.1361066  130
        0.0000000   0.0000000   0.1497173  131
        0.0000000   0.0000000   0.1633279  132
        0.0000000   0.0000000   0.1769386  133
        0.0000000   0.0000000   0.1905492  134
        0.0000000   0.0000000   0.2041599  135
        0.0000000   0.0000000   0.2177706  136
        0.0000000   0.0000000   0.2313812  137
        0.0000000   0.0000000   0.2449919  138
        0.0000000   0.0000000   0.2586025  139
        0.0000000   0.0000000   0.2722132  140
        0.0000000   0.0000000   0.2858239  141
        0.0000000   0.0000000   0.2994345  142
        0.0000000   0.0000000   0.3130452  143
        0.0000000   0.0000000   0.3266558  144
        0.0000000   0.0000000   0.3402665  145
        0.0000000   0.0000000   0.3538772  146
        0.0000000   0.0000000   0.3674878  147
        0.0000000   0.0000000   0.3810985  148
        0.0000000   0.0000000   0.3947091  149
        0.0000000   0.0000000   0.4083198  150
        0.0000000   0.0000000   0.4219305  151
        0.0000000   0.0000000   0.4355411  152
        0.0000000   0.0000000   0.4491518  153
        0.0000000   0.0000000   0.4627624  154
        0.0000000   0.0000000   0.4763731  155
        0.0000000   0.0000000   0.4899838  156
        0.0000000   0.0000000   0.5035944  157
        0.0000000   0.0000000   0.5172051  158
        0.0000000   0.0000000   0.5308157  159
        0.0000000   0.0000000   0.5444264  160
        0.0250000   0.0000000   0.5444264  161
        0.0500000  -0.0000000   0.5444264  162
        0.0750000   0.0000000   0.5444264  163
        0.1000000  -0.0000000   0.5444264  164
        0.1250000   0.0000000   0.5444264  165
        0.1500000   0.0000000   0.5444264  166
        0.1750000  -0.0000000   0.5444264  167
        0.2000000   0.0000000   0.5444264  168
        0.2250000  -0.0000000   0.5444264  169
        0.2500000   0.0000000   0.5444264  170
        0.2750000   0.0000000   0.5444264  171
        0.3000000   0.0000000   0.5444264  172
        0.3250000   0.0000000   0.5444264  173
        0.3500000  -0.0000000   0.5444264  174
        0.3750000   0.0000000   0.5444264  175
        0.4000000   0.0000000   0.5444264  176
        0.4250000   0.0000000   0.5444264  177
        0.4500000   0.0000000   0.5444264  178
        0.4750000  -0.0000000   0.5444264  179
        0.5000000   0.0000000   0.5444264  180
        0.5250000   0.0000000   0.5444264  181
        0.5500000   0.0000000   0.5444264  182
        0.5750000  -0.0000000   0.5444264  183
        0.6000000   0.0000000   0.5444264  184
        0.6250000   0.0000000   0.5444264  185
        0.6500000   0.0000000   0.5444264  186
       -0.3250000   0.5773503   0.5444264  187
       -0.3000000   0.5773503   0.5444264  188
       -0.2750000   0.5773503   0.5444264  189
       -0.2500000   0.5773503   0.5444264  190
       -0.2250000   0.5773503   0.5444264  191
       -0.2000000   0.5773503   0.5444264  192
       -0.1750000   0.5773503   0.5444264  193
       -0.1500000   0.5773503   0.5444264  194
       -0.1250000   0.5773503   0.5444264  195
       -0.1000000   0.5773503   0.5444264  196
       -0.0750000   0.5773503   0.5444264  197
       -0.0500000   0.5773503   0.5444264  198
       -0.0250000   0.5773503   0.5444264  199
        0.0000000   0.5773503   0.5444264  200
       -0.0000025  -0.5629180   0.5444264  201
       -0.0000050  -0.5484856   0.5444264  202
       -0.0000075  -0.5340533   0.5444264  203
       -0.0000100  -0.5196210   0.5444264  204
       -0.0000125  -0.5051887   0.5444264  205
       -0.0000150  -0.4907564   0.5444264  206
       -0.0000175  -0.4763241   0.5444264  207
       -0.0000200  -0.4618918   0.5444264  208
       -0.0000225  -0.4474594   0.5444264  209
       -0.0000250  -0.4330271   0.5444264  210
       -0.0000275  -0.4185948   0.5444264  211
       -0.0000300  -0.4041625   0.5444264  212
       -0.0000325  -0.3897302   0.5444264  213
       -0.0000350  -0.3752979   0.5444264  214
       -0.0000375  -0.3608656   0.5444264  215
       -0.0000400  -0.3464333   0.5444264  216
       -0.0000425  -0.3320009   0.5444264  217
       -0.0000450  -0.3175686   0.5444264  218
       -0.0000475  -0.3031363   0.5444264  219
       -0.0000500  -0.2887040   0.5444264  220
       -0.0000525  -0.2742717   0.5444264  221
       -0.0000550  -0.2598394   0.5444264  222
       -0.0000575  -0.2454071   0.5444264  223
       -0.0000600  -0.2309747   0.5444264  224
       -0.0000625  -0.2165424   0.5444264  225
       -0.0000650  -0.2021101   0.5444264  226
       -0.0000675  -0.1876778   0.5444264  227
       -0.0000700  -0.1732455   0.5444264  228
       -0.0000725  -0.1588132   0.5444264  229
       -0.0000750  -0.1443809   0.5444264  230
       -0.0000775  -0.1299486   0.5444264  231
       -0.0000800  -0.1155162   0.5444264  232
       -0.0000825  -0.1010839   0.5444264  233
       -0.0000850  -0.0866516   0.5444264  234
       -0.0000875  -0.0722193   0.5444264  235
       -0.0000900  -0.0577870   0.5444264  236
       -0.0000925  -0.0433547   0.5444264  237
       -0.0000950  -0.0289224   0.5444264  238
       -0.0000975  -0.0144900   0.5444264  239
       -0.0001000  -0.0000577   0.5444264  240
       -0.0250975  -0.0144900   0.5444264  241
       -0.0500950  -0.0289224   0.5444264  242
       -0.0750925  -0.0433547   0.5444264  243
       -0.1000900  -0.0577870   0.5444264  244
       -0.1250875  -0.0722193   0.5444264  245
       -0.1500850  -0.0866516   0.5444264  246
       -0.1750825  -0.1010839   0.5444264  247
       -0.2000800  -0.1155162   0.5444264  248
       -0.2250775  -0.1299486   0.5444264  249
       -0.2500750  -0.1443809   0.5444264  250
       -0.2750725  -0.1588132   0.5444264  251
       -0.3000700  -0.1732455   0.5444264  252
       -0.3250675  -0.1876778   0.5444264  253
       -0.3500650  -0.2021101   0.5444264  254
       -0.3750625  -0.2165424   0.5444264  255
       -0.4000600  -0.2309747   0.5444264  256
       -0.4250575  -0.2454071   0.5444264  257
       -0.4500550  -0.2598394   0.5444264  258
       -0.4750525  -0.2742717   0.5444264  259
        0.4999500   0.2886463   0.5444264  260
        0.4749525   0.2742140   0.5444264  261
        0.4499550   0.2597816   0.5444264  262
        0.4249575   0.2453493   0.5444264  263
        0.3999600   0.2309170   0.5444264  264
        0.3749625   0.2164847   0.5444264  265
        0.3499650   0.2020524   0.5444264  266
        0.3249675   0.1876201   0.5444264  267
        0.2999700   0.1731878   0.5444264  268
        0.2749725   0.1587554   0.5444264  269
        0.2499750   0.1443231   0.5444264  270
        0.2249775   0.1298908   0.5444264  271
        0.1999800   0.1154585   0.5444264  272
        0.1749825   0.1010262   0.5444264  273
        0.1499850   0.0865939   0.5444264  274
        0.1249875   0.0721616   0.5444264  275
        0.0999900   0.0577293   0.5444264  276
        0.0749925   0.0432969   0.5444264  277
        0.0499950   0.0288646   0.5444264  278
        0.0249975   0.0144323   0.5444264  279
