&control
  calculation = 'bands'
  prefix='FeSC',
  pseudo_dir = '../../ppt/',
  outdir='../tmp/'
  verbosity='high'
/
 
&system
  ibrav=3,
  celldm(1)=10.84,
  nat=8,
  ntyp=1,
  nspin=2,
  starting_magnetization(1)=0.5,
  occupations='smearing',
  smearing='mp',
  degauss=0.04,
  ecutwfc =45.0,
  ecutrho =300.0
/
&electrons
  conv_thr = 1.0d-10
  diagonalization = 'cg'
/
 
ATOMIC_SPECIES
Fe 0.0 fe_pbe_v1.uspp.F.UPF
 
ATOMIC_POSITIONS crystal
Fe  0.00000000  0.00000000  0.00000000
Fe  0.50000000  0.00000000  0.00000000
Fe  0.00000000  0.50000000  0.00000000
Fe  0.50000000  0.50000000  0.00000000
Fe  0.00000000  0.00000000  0.50000000
Fe  0.50000000  0.00000000  0.50000000
Fe  0.00000000  0.50000000  0.50000000
Fe  0.50000000  0.50000000  0.50000000
 
   K_POINTS tpiba
    60
        0.0000000   0.0000000   0.0000000    1
       -0.0500000   0.0500000   0.0500000    2
       -0.1000000   0.1000000   0.1000000    3
       -0.1500000   0.1500000   0.1500000    4
       -0.2000000   0.2000000   0.2000000    5
       -0.2500000   0.2500000   0.2500000    6
       -0.3000000   0.3000000   0.3000000    7
       -0.3500000   0.3500000   0.3500000    8
       -0.4000000   0.4000000   0.4000000    9
       -0.4500000   0.4500000   0.4500000   10
       -0.5000000   0.5000000   0.5000000   11
        0.4500000  -0.4500000   0.5500000   12
        0.4000000  -0.4000000   0.6000000   13
        0.3500000  -0.3500000   0.6500000   14
        0.3000000  -0.3000000   0.7000000   15
        0.2500000  -0.2500000   0.7500000   16
        0.2000000  -0.2000000   0.8000000   17
        0.1500000  -0.1500000   0.8500000   18
        0.1000000  -0.1000000   0.9000000   19
        0.0500000  -0.0500000   0.9500000   20
        0.0000000   0.0000000   1.0000000   21
        0.0500000   0.9500000   0.0000000   22
        0.1000000   0.9000000   0.0000000   23
        0.1500000   0.8500000   0.0000000   24
        0.2000000   0.8000000   0.0000000   25
        0.2500000   0.7500000   0.0000000   26
        0.3000000   0.7000000   0.0000000   27
        0.3500000   0.6500000   0.0000000   28
        0.4000000   0.6000000   0.0000000   29
        0.4500000   0.5500000   0.0000000   30
        0.5000000   0.5000000   0.0000000   31
        0.5500000   0.4500000   0.0000000   32
        0.6000000   0.4000000   0.0000000   33
        0.6500000   0.3500000   0.0000000   34
        0.7000000   0.3000000   0.0000000   35
        0.7500000   0.2500000   0.0000000   36
        0.8000000   0.2000000   0.0000000   37
        0.8500000   0.1500000   0.0000000   38
        0.9000000   0.1000000   0.0000000   39
        0.9500000   0.0500000   0.0000000   40
        0.0250000   0.0250000   0.9750000   41
        0.0500000   0.0500000   0.9500000   42
        0.0750000   0.0750000   0.9250000   43
        0.1000000   0.1000000   0.9000000   44
        0.1250000   0.1250000   0.8750000   45
        0.1500000   0.1500000   0.8500000   46
        0.1750000   0.1750000   0.8250000   47
        0.2000000   0.2000000   0.8000000   48
        0.2250000   0.2250000   0.7750000   49
        0.2500000   0.2500000   0.7500000   50
        0.2750000   0.2750000   0.7250000   51
        0.3000000   0.3000000   0.7000000   52
        0.3250000   0.3250000   0.6750000   53
        0.3500000   0.3500000   0.6500000   54
        0.3750000   0.3750000   0.6250000   55
        0.4000000   0.4000000   0.6000000   56
        0.4250000   0.4250000   0.5750000   57
        0.4500000   0.4500000   0.5500000   58
        0.4750000   0.4750000   0.5250000   59
        0.5000000   0.5000000   0.5000000   60

