&control
  calculation = 'scf'
  prefix='FeSC',
  pseudo_dir = '../../ppt/',
  outdir='../tmp/'
/
 
&system
  ibrav=3,
  celldm(1)=10.84,
  nat=8,
  ntyp=1,
  nspin=2,
  starting_magnetization(1)=0.5,
  occupations='smearing',
  smearing='mp',
  degauss=0.04,
  ecutwfc =45.0,
  ecutrho =300.0
/
&electrons
  conv_thr = 1.0d-10
/
 
ATOMIC_SPECIES
Fe 0.0 fe_pbe_v1.uspp.F.UPF
 
ATOMIC_POSITIONS crystal
Fe  0.00000000  0.00000000  0.00000000
Fe  0.50000000  0.00000000  0.00000000
Fe  0.00000000  0.50000000  0.00000000
Fe  0.50000000  0.50000000  0.00000000
Fe  0.00000000  0.00000000  0.50000000
Fe  0.50000000  0.00000000  0.50000000
Fe  0.00000000  0.50000000  0.50000000
Fe  0.50000000  0.50000000  0.50000000
 
K_POINTS AUTOMATIC
4 4 4 1 1 1 
